
Gurobi 12.0.2 (mac64[arm]) logging started Fri Jun 13 20:34:20 2025

Set parameter LogFile to value "/Users/yurunfeng/Documents/GitHub/LRGTS-store-location/result/gurobi/snyder/150nodes/150-0.85-5.log"
Gurobi Optimizer version 12.0.2 build v12.0.2rc0 (mac64[arm] - Darwin 24.5.0 24F74)

CPU model: Apple M4
Thread count: 10 physical cores, 10 logical processors, using up to 10 threads

Non-default parameters:
TimeLimit  1200

Optimize a model with 3510600 rows, 6795450 columns and 32209486 nonzeros
Model fingerprint: 0xf0ea686f
Variable types: 3397650 continuous, 3397800 integer (3397800 binary)
Coefficient statistics:
  Matrix range     [2e-01, 1e+00]
  Objective range  [9e+01, 8e+06]
  Bounds range     [1e+00, 1e+00]
  RHS range        [1e+00, 5e+00]
Found heuristic solution: objective 6.624322e+07
Presolve removed 22800 rows and 22650 columns (presolve time = 5s)...
Presolve removed 22800 rows and 22650 columns (presolve time = 10s)...
Presolve removed 45300 rows and 22650 columns (presolve time = 15s)...
Presolve removed 45300 rows and 22650 columns (presolve time = 21s)...
Presolve removed 45300 rows and 22650 columns (presolve time = 25s)...
Presolve removed 45300 rows and 22650 columns (presolve time = 30s)...
Presolve removed 45300 rows and 22650 columns (presolve time = 40s)...
Presolve removed 45300 rows and 22650 columns (presolve time = 45s)...
Presolve removed 45300 rows and 22650 columns (presolve time = 50s)...
Presolve removed 45300 rows and 22650 columns (presolve time = 80s)...
Presolve removed 45300 rows and 22650 columns (presolve time = 87s)...
Presolve removed 45300 rows and 22650 columns (presolve time = 90s)...
Presolve removed 45300 rows and 22650 columns
Presolve time: 92.10s
Presolved: 3465300 rows, 6772800 columns, 29017511 nonzeros
Variable types: 3375000 continuous, 3397800 integer (3397800 binary)
Deterministic concurrent LP optimizer: primal simplex, dual simplex, and barrier
Showing barrier log only...

Root barrier log...

Elapsed ordering time = 15s
Elapsed ordering time = 15s
Elapsed ordering time = 20s
Ordering time: 21.45s

Barrier performed 0 iterations in 127.09 seconds (270.36 work units)
Barrier solve interrupted - model solved by another algorithm

Concurrent spin time: 7.15s (can be avoided by choosing Method=3)

Solved with dual simplex

Root simplex log...

Iteration    Objective       Primal Inf.    Dual Inf.      Time
   29910    2.3976733e+06   0.000000e+00   0.000000e+00    127s

Root relaxation: objective 2.397673e+06, 29910 iterations, 32.60 seconds (53.03 work units)

    Nodes    |    Current Node    |     Objective Bounds      |     Work
 Expl Unexpl |  Obj  Depth IntInf | Incumbent    BestBd   Gap | It/Node Time

     0     0 2397673.34    0 3335 6.6243e+07 2397673.34  96.4%     -  139s
H    0     0                    3546462.7941 2397673.34  32.4%     -  216s
H    0     0                    3164009.4142 2397673.34  24.2%     -  272s
H    0     0                    2814521.8795 2397673.34  14.8%     -  338s
     0     0 2434235.74    0 6742 2814521.88 2434235.74  13.5%     -  580s
H    0     0                    2795271.8831 2434259.31  12.9%     -  701s
H    0     0                    2795271.8518 2434259.31  12.9%     -  744s
H    0     0                    2794801.6939 2434259.31  12.9%     -  787s
H    0     0                    2794088.8241 2434259.31  12.9%     -  788s
H    0     0                    2793345.3095 2434259.31  12.9%     -  788s
     0     0 2438001.53    0 6451 2793345.31 2438001.53  12.7%     -  832s
     0     0 2438262.17    0 6351 2793345.31 2438262.17  12.7%     -  859s
     0     0 2438272.70    0 6408 2793345.31 2438272.70  12.7%     -  886s
     0     0 2438272.70    0 6431 2793345.31 2438272.70  12.7%     -  909s
     0     0          -    0      2793345.31 2438272.70  12.7%     - 1200s

Cutting planes:
  Cover: 11
  Clique: 4
  MIR: 406
  Flow cover: 1377
  Zero half: 1
  RLT: 159
  Relax-and-lift: 1

Explored 1 nodes (89025 simplex iterations) in 1200.57 seconds (1623.17 work units)
Thread count was 10 (of 10 available processors)

Solution count 8: 2.79335e+06 2.79409e+06 2.7948e+06 ... 6.62432e+07

Time limit reached
Best objective 2.793345309522e+06, best bound 2.438272696694e+06, gap 12.7114%
